48786 48979
49589 24240
40837 44027
22625 4953
45643 20490
33904 22540
49299 48243
33526 48032
17965 39256
59774 60425
50392 21530
2393 1550
48474 28753
62967 58208
18085 8690
26953 54309
23329 23185
62013 12934
6285 39300
8167 58216
58138 48672
61561 10633
57590 47781
45312 49411
5430 8115
18475 45749
34650 3080
56808 27530
24418 50265
